nbObj= 50;
Capacity= 1247;
Profit =[ 97,78,42,64,33,107,31,53,12,72,101,17,14,68,17,57,40,76,41,38,32,44,67,103,15,32,81,107,13,107,58,51,74,89,56,49,37,77,91,38,90,82,97,94,91,55,92,72,21,22];
Weight =[ 87,68,32,54,23,97,21,43,2,62,91,7,4,58,7,47,30,66,31,28,22,34,57,93,5,22,71,97,3,97,48,41,64,79,46,39,27,67,81,28,80,72,87,84,81,45,82,62,11,12];
